ML_LMLFF = .TRUE.
ML_MODE = train

KSPACING =1231


somepar = 0.11

wefwefwefwe fwe

4t34t 
**

asd


someparaa = 0.123132
sobb = 110.123132
